NAME : amz2130.169615_165115.tour
COMMENT : Cost = 169615_165115
COMMENT : Found by LKH-AMZ [Keld Helsgaun] Sun May 11 13:43:05 2025
COMMENT : TW viol.: 0 #: 0
TYPE : TOUR
DIMENSION : 158
TOUR_SECTION
113
110
21
135
71
76
60
96
97
34
87
66
49
120
23
38
147
44
10
88
26
46
94
86
104
115
95
90
39
151
124
129
101
99
29
55
81
53
50
106
22
133
114
16
111
33
154
14
84
17
134
109
140
15
56
131
63
105
9
142
75
57
138
12
89
78
91
24
85
122
28
117
2
36
137
58
70
73
31
69
145
118
79
32
98
48
143
92
20
30
80
6
19
35
72
45
100
4
150
108
146
68
41
158
77
51
130
13
136
123
83
5
121
37
8
119
18
61
128
103
42
116
27
3
64
40
54
11
93
112
144
43
59
102
152
107
157
1
148
47
52
125
25
156
153
127
62
155
149
141
7
132
74
82
139
126
67
65
-1
EOF
